&BANDS
outdir='./tmp'
prefix='TiC'
filband='bands_TiC'
/
