&CONTROL
 calculation = 'nscf',
 restart_mode = 'from_scratch',
 prefix = 'TiC',
 pseudo_dir = '../../Pseudo',
 outdir = './tmp',
 tprnfor = .true.,
 tstress = .true.,
 verbosity = 'high',
/
&SYSTEM
 ibrav = 0,
 celldm(1) = 5.803,
 nat=  5,
 ntyp= 2,
 ecutwfc = 40,
 ecutrho = 208,
 occupations= 'tetrahedra',
 assume_isolated = '2D'
/
&ELECTRONS
 conv_thr =  1.0d-9,
 diago_full_acc = .true
/
ATOMIC_SPECIES
 C  12.0107  C.pbe-n-rrkjus_psl.1.0.0.UPF
 Ti 47.867 Ti.pbe-spn-rrkjus_psl.1.0.0.UPF
CELL_PARAMETERS (alat=  5.80300000)
   1.005146067   0.000002260   0.000000000
  -0.502571076   0.870483159   0.000000000
   0.000000000   0.000000000   8.183000000

ATOMIC_POSITIONS (crystal)
C             0.3333388263        0.6666611737        0.4472339735
C             0.6666611737        0.3333388263        0.5527660265
Ti            0.0000000000        0.0000000000        0.5000000000
Ti            0.3333308819        0.6666691181        0.5928958922
Ti            0.6666691181        0.3333308819        0.4071041078
K_POINTS automatic
 30 30 2 0 0 0
